% For this week, how many people will be here.
numPeople = [26,26,26,26,26,30,30,30,30,26,29,29,29,29,32,32,46,35
,35,41,42,42,44,35,35,35,35,41,38,52,52,59,44,44,54,51
,51,51,51,51,54,65,62,74,83,93,84,88,85,95,95,105,105,108
,108,108,105,105,105,115,125,125,125,125,125,124,124,124,124,119,119,127
,135,154,154,154,146,146,144,153,152,152,152,152,161,161,164,164,164,164
,164,164,164,164,164,165,165,154,154,162,162,162,162,162,162,162,162,162
,163,162,162,162,167,164,167,164,164,164,158,160,160,155,158,158,158,154
,156,156,156,156,156,156,156,163,163,163,162,147,161,157,157,157,148,162
,148,148,135,139,136,125,125,125,125,117,122,121,109,109,109,109,98,98
,98,89,89,89,89,89,89,89,89,89,89,89,89,89,89,89,89,89
,89,89,89,89,89,89,89,89,89,89,89,89,89,89,89,89,89,89
,89,89,91,91,91,91,91,40,40,40,40,40,40,40,40,40,40,40
,25,25,25,25,25,25,25,25,25,25,25,25,25,25,25,25,25,25
,25,25,25,25,25,25,25,25,25,25,25,25,25,25,25,25,25,25
,25,25,25,25,25,25,25,25,25,25,25,25,25,25,25,25,25,25
,25,25,25,25,25,25,25,25,25,25,25,25,25,25,25,25,25,25
,25,25,25,25,25,25,25,25,25,25,25,25,25,25,25,25,25,25
,25,25,25,25,25,25,25,25,25,25,25,25,25,25,25,25,25,25
,25,25,25,25,25,25,25,25,25,25,25,25,25,25,25,25,25,25
,25,25,25,25,25,25,25,25,25,25,25,25,25,25,25,25,25,25
,25,25,25,25,25,25,25,25,25,25];

% Physical workers need 50 to 100 % more nutrients per day.
numPhysicalWorkers = [14.5,14.5,14.5,14.5,14.5,14.5,14.5,14.5,14.5,14.5,16.5,16.5,16.5,16.5
,18.5,18.5,20.5,20.5,20.5,20.5,20.5,20.5,20.5,20.5,20.5,20.5,20.5,20.5
,20.5,20.5,20.5,23.5,23.5,22.5,29.0,28.0,28.0,28.0,28.0,28.0,28.0,33.0,
33.0,37.5,37.5,38.0,37.0,37.0,37.0,40.0,40.0,41.0,41.0,41.0,41.0,41.0,
41.0,41.0,41.0,45.0,46.5,46.5,46.5,46.5,46.5,46.5,45.5,45.5,45.5,45.5
,43.5,44.0,44.0,53.5,53.5,53.5,53.5,53.5,53.5,56.0,56.0,55.0,55.0,55.0,
58.5,58.5,58.5,58.5,58.5,58.5,58.5,58.5,58.5,58.5,58.5,58.5,58.5,58.5
,54.0,56.5,56.5,56.5,56.5,56.5,56.5,56.5,56.5,56.5,56.5,56.5,56.5,56.5
,57.5,57.5,57.5,57.5,57.5,57.5,57.5,54.0,54.0,54.0,53.0,53.0,53.0,53.0,
51.5,51.5,51.5,51.5,51.5,51.5,55.0,50.5,50.5,50.5,50.5,50.5,47.0,47.0,
47.0,47.0,47.0,46.0,46.0,46.0,46.0,42.0,42.0,39.0,33.5,33.5,33.5,33.5
,32.0,32.0,31.0,28.0,28.0,28.0,28.0,28.0,28.0,28.0,21.0,21.0,21.0,21.0,
21.0,21.0,21.0,21.0,21.0,21.0,21.0,21.0,21.0,21.0,21.0,21.0,21.0,21.0,
21.0,21.0,21.0,21.0,21.0,21.0,21.0,21.0,21.0,21.0,21.0,21.0,21.0,21.0,
21.0,21.0,21.0,21.0,21.5,21.5,21.5,21.5,21.5,21.5,14.5,14.5,14.5,14.5
,14.5,14.5,14.5,14.5,14.5,14.5,14.5,13.0,13.0,13.0,13.0,13.0,13.0,13.0,
13.0,13.0,13.0,13.0,13.0,13.0,13.0,13.0,13.0,13.0,13.0,13.0,13.0,13.0,
13.0,13.0,13.0,13.0,13.0,13.0,13.0,13.0,13.0,13.0,13.0,13.0,13.0,13.0,
13.0,13.0,13.0,13.0,13.0,13.0,13.0,13.0,13.0,13.0,13.0,13.0,13.0,13.0,
13.0,13.0,13.0,13.0,13.0,13.0,13.0,13.0,13.0,13.0,13.0,13.0,13.0,13.0,
13.0,13.0,13.0,13.0,13.0,13.0,13.0,13.0,13.0,13.0,13.0,13.0,13.0,13.0,
13.0,13.0,13.0,13.0,13.0,13.0,13.0,13.0,13.0,13.0,13.0,13.0,13.0,13.0,
13.0,13.0,13.0,13.0,13.0,13.0,13.0,13.0,13.0,13.0,13.0,13.0,13.0,13.0,
13.0,13.0,13.0,13.0,13.0,13.0,13.0,13.0,13.0,13.0,13.0,13.0,13.0,13.0,
13.0,13.0,13.0,13.0,13.0,13.0,13.0,13.0,13.0,13.0,13.0,13.0,13.0,13.0,
13.0,13.0,13.0,13.0,13.0,13.0,13.0,13.0,13.0,13.0,13.0,13.0,13.0,13.0,
13.0,13.0,13.0,13.0,13.0,13.0];

% Males need +25% more nutrients per day.
numMen = [23,23,23,23,23,27,27,27,27,27,25,25,25,25,27,27,41,41
,30,36,42,36,43,37,30,30,30,36,36,46,46,50,50,36,42,41
,38,38,38,38,40,47,47,52,60,71,71,65,65,72,72,81,81,84
,84,84,84,81,81,86,96,96,96,96,96,96,95,95,95,100,94,101
,108,126,126,126,126,119,119,128,128,127,127,127,136,135,137,137,137,137
,137,137,137,137,137,138,138,138,131,136,136,136,136,136,136,136,136,136
,139,139,136,136,140,140,140,140,137,137,137,132,132,132,132,132,132,132
,128,128,128,128,128,128,132,134,134,134,134,136,145,133,129,135,129,135
,135,121,121,112,112,109,100,100,100,100,100,100,99,90,90,90,90,80
,80,80,75,75,75,75,75,75,75,75,75,75,75,75,75,75,75,75
,75,75,75,75,75,75,75,75,75,75,75,75,75,75,75,75,75,75
,75,75,76,76,76,76,76,76,30,30,30,30,30,30,30,30,30,30
,30,19,19,19,19,19,19,19,19,19,19,19,19,19,19,19,19,19
,19,19,19,19,19,19,19,19,19,19,19,19,19,19,19,19,19,19
,19,19,19,19,19,19,19,19,19,19,19,19,19,19,19,19,19,19
,19,19,19,19,19,19,19,19,19,19,19,19,19,19,19,19,19,19
,19,19,19,19,19,19,19,19,19,19,19,19,19,19,19,19,19,19
,19,19,19,19,19,19,19,19,19,19,19,19,19,19,19,19,19,19
,19,19,19,19,19,19,19,19,19,19,19,19,19,19,19,19,19,19
,19,19,19,19,19,19,19,19,19,19,19,19,19,19,19,19,19,19
,19,19,19,19,19,19,19,19,19,19];

% Num people who do not eat categories. None means they eat everything.
% contains = {none, meat, milk, gluten, egg, nut, seed, sugars}
numRefusals = [| 5,3,1,2,4,2,1,4 | 5,3,1,2,4,2,1,4 | 5,3,1,2,4,2,1,4 | 5,3,1,2,4,2,1,4 | 5,3,1,2,4,2,1,4 | 2,4,0,1,1,0,3,1 | 2,4,0,1,1,0,3,1 | 2,4,0,1,1,0,3,1 | 2,4,0,1,1,0,3,1 | 1,2,0,1,3,0,3,3 | 1,3,1,1,0,2,1,1 | 1,3,1,1,0,2,1,1 | 1,3,1,1,0,2,1,1 | 1,3,1,1,0,2,1,1 | 5,1,2,4,4,4,7,5 | 5,1,2,4,4,4,7,5 | 9,7,5,2,3,4,2,4 | 5,1,8,0,6,1,3,3 | 5,1,8,0,6,1,3,3 | 2,3,3,4,7,4,5,0 | 9,4,3,1,2,2,6,1 | 9,4,3,1,2,2,6,1 | 5,5,0,6,3,2,6,2 | 3,2,3,6,2,4,3,5 | 3,2,3,6,2,4,3,5 | 3,2,3,6,2,4,3,5 | 3,2,3,6,2,4,3,5 | 1,4,1,3,1,6,0,4 | 3,5,15,2,4,2,5,2 | 7,9,2,0,3,0,6,0 | 7,9,2,0,3,0,6,0 | 4,14,2,1,3,7,6,0 | 10,4,9,5,4,8,5,3 | 10,4,9,5,4,8,5,3 | 12,1,8,2,3,0,0,12 | 1,13,1,7,4,1,8,3 | 1,13,1,7,4,1,8,3 | 1,13,1,7,4,1,8,3 | 1,13,1,7,4,1,8,3 | 1,13,1,7,4,1,8,3 | 4,2,1,8,0,4,0,18 | 0,7,1,1,10,7,6,14 | 1,5,7,15,3,6,2,9 | 8,4,3,3,7,5,6,1 | 1,7,11,2,1,3,6,2 | 0,1,9,3,2,10,17,1 | 5,8,2,6,6,3,4,4 | 12,2,11,8,0,9,6,9 | 7,5,5,19,3,17,18,12 | 4,6,22,2,10,17,1,6 | 4,6,22,2,10,17,1,6 | 4,4,13,6,1,5,5,8 | 4,4,13,6,1,5,5,8 | 5,1,8,4,13,0,7,30 | 5,1,8,4,13,0,7,30 | 5,1,8,4,13,0,7,30 | 0,0,3,4,16,1,13,15 | 0,0,3,4,16,1,13,15 | 0,0,3,4,16,1,13,15 | 5,2,22,3,9,0,6,15 | 17,1,11,10,15,17,0,10 | 17,1,11,10,15,17,0,10 | 17,1,11,10,15,17,0,10 | 17,1,11,10,15,17,0,10 | 17,1,11,10,15,17,0,10 | 1,11,11,1,0,12,9,21 | 1,11,11,1,0,12,9,21 | 1,11,11,1,0,12,9,21 | 1,11,11,1,0,12,9,21 | 9,5,10,1,3,6,3,1 | 9,5,10,1,3,6,3,1 | 8,5,11,17,15,3,8,1 | 9,9,1,4,2,3,1,19 | 3,12,17,11,3,8,15,15 | 3,12,17,11,3,8,15,15 | 3,12,17,11,3,8,15,15 | 9,20,15,12,4,7,17,1 | 9,20,15,12,4,7,17,1 | 2,1,4,1,7,8,12,11 | 4,5,10,2,4,15,14,7 | 8,11,9,3,0,13,10,0 | 8,11,9,3,0,13,10,0 | 8,11,9,3,0,13,10,0 | 8,11,9,3,0,13,10,0 | 8,17,2,25,22,26,18,16 | 8,17,2,25,22,26,18,16 | 1,28,24,13,11,4,16,10 | 1,28,24,13,11,4,16,10 | 1,28,24,13,11,4,16,10 | 1,28,24,13,11,4,16,10 | 1,28,24,13,11,4,16,10 | 1,28,24,13,11,4,16,10 | 1,28,24,13,11,4,16,10 | 1,28,24,13,11,4,16,10 | 1,28,24,13,11,4,16,10 | 17,25,16,1,19,15,3,7 | 17,25,16,1,19,15,3,7 | 22,9,9,12,32,9,1,6 | 22,9,9,12,32,9,1,6 | 8,39,10,5,4,4,30,6 | 8,39,10,5,4,4,30,6 | 8,39,10,5,4,4,30,6 | 8,39,10,5,4,4,30,6 | 8,39,10,5,4,4,30,6 | 8,39,10,5,4,4,30,6 | 8,39,10,5,4,4,30,6 | 8,39,10,5,4,4,30,6 | 8,39,10,5,4,4,30,6 | 10,8,27,9,31,36,13,9 | 6,13,1,11,11,8,7,4 | 6,13,1,11,11,8,7,4 | 6,13,1,11,11,8,7,4 | 18,37,17,8,18,30,14,8 | 27,27,8,1,19,4,5,7 | 8,39,14,6,0,3,39,39 | 10,35,21,1,28,4,25,11 | 10,35,21,1,28,4,25,11 | 10,35,21,1,28,4,25,11 | 6,8,6,17,3,11,3,5 | 29,4,10,23,21,11,10,6 | 29,4,10,23,21,11,10,6 | 3,4,5,24,5,9,12,7 | 9,13,20,14,13,5,8,6 | 9,13,20,14,13,5,8,6 | 9,13,20,14,13,5,8,6 | 12,12,5,4,36,3,4,4 | 12,9,11,9,22,12,12,3 | 12,9,11,9,22,12,12,3 | 12,9,11,9,22,12,12,3 | 12,9,11,9,22,12,12,3 | 12,9,11,9,22,12,12,3 | 12,9,11,9,22,12,12,3 | 12,9,11,9,22,12,12,3 | 10,28,19,1,14,5,11,44 | 10,28,19,1,14,5,11,44 | 10,28,19,1,14,5,11,44 | 4,21,7,5,20,13,17,12 | 10,4,19,2,3,22,9,14 | 21,3,4,2,14,20,14,15 | 8,0,8,1,3,28,7,14 | 8,0,8,1,3,28,7,14 | 8,0,8,1,3,28,7,14 | 10,6,2,14,19,20,10,0 | 5,5,22,12,1,28,2,6 | 23,10,16,22,16,16,3,15 | 23,10,16,22,16,16,3,15 | 7,1,4,25,7,13,0,9 | 11,7,11,5,23,8,13,9 | 7,11,11,8,3,17,25,1 | 10,13,2,8,8,21,16,5 | 10,13,2,8,8,21,16,5 | 10,13,2,8,8,21,16,5 | 10,13,2,8,8,21,16,5 | 22,19,6,6,17,21,6,3 | 9,2,15,2,24,5,7,14 | 2,3,5,8,12,9,6,4 | 17,8,3,8,13,8,11,3 | 17,8,3,8,13,8,11,3 | 17,8,3,8,13,8,11,3 | 17,8,3,8,13,8,11,3 | 6,4,3,4,9,2,3,5 | 6,4,3,4,9,2,3,5 | 6,4,3,4,9,2,3,5 | 6,7,2,19,8,12,2,15 | 6,7,2,19,8,12,2,15 | 6,7,2,19,8,12,2,15 | 6,7,2,19,8,12,2,15 | 6,7,2,19,8,12,2,15 | 6,7,2,19,8,12,2,15 | 6,7,2,19,8,12,2,15 | 6,7,2,19,8,12,2,15 | 6,7,2,19,8,12,2,15 | 6,7,2,19,8,12,2,15 | 6,7,2,19,8,12,2,15 | 6,7,2,19,8,12,2,15 | 6,7,2,19,8,12,2,15 | 6,7,2,19,8,12,2,15 | 6,7,2,19,8,12,2,15 | 6,7,2,19,8,12,2,15 | 6,7,2,19,8,12,2,15 | 6,7,2,19,8,12,2,15 | 6,7,2,19,8,12,2,15 | 6,7,2,19,8,12,2,15 | 6,7,2,19,8,12,2,15 | 6,7,2,19,8,12,2,15 | 6,7,2,19,8,12,2,15 | 6,7,2,19,8,12,2,15 | 6,7,2,19,8,12,2,15 | 6,7,2,19,8,12,2,15 | 6,7,2,19,8,12,2,15 | 6,7,2,19,8,12,2,15 | 6,7,2,19,8,12,2,15 | 6,7,2,19,8,12,2,15 | 6,7,2,19,8,12,2,15 | 6,7,2,19,8,12,2,15 | 6,7,2,19,8,12,2,15 | 6,7,2,19,8,12,2,15 | 6,7,2,19,8,12,2,15 | 6,7,2,19,8,12,2,15 | 6,7,2,19,8,12,2,15 | 16,7,5,4,5,5,9,5 | 16,7,5,4,5,5,9,5 | 16,7,5,4,5,5,9,5 | 16,7,5,4,5,5,9,5 | 16,7,5,4,5,5,9,5 | 2,3,3,2,3,11,9,2 | 2,3,3,2,3,11,9,2 | 2,3,3,2,3,11,9,2 | 2,3,3,2,3,11,9,2 | 2,3,3,2,3,11,9,2 | 2,3,3,2,3,11,9,2 | 2,3,3,2,3,11,9,2 | 2,3,3,2,3,11,9,2 | 2,3,3,2,3,11,9,2 | 2,3,3,2,3,11,9,2 | 2,3,3,2,3,11,9,2 | 0,2,5,1,5,1,5,1 | 0,2,5,1,5,1,5,1 | 0,2,5,1,5,1,5,1 | 0,2,5,1,5,1,5,1 | 0,2,5,1,5,1,5,1 | 0,2,5,1,5,1,5,1 | 0,2,5,1,5,1,5,1 | 0,2,5,1,5,1,5,1 | 0,2,5,1,5,1,5,1 | 0,2,5,1,5,1,5,1 | 0,2,5,1,5,1,5,1 | 0,2,5,1,5,1,5,1 | 0,2,5,1,5,1,5,1 | 0,2,5,1,5,1,5,1 | 0,2,5,1,5,1,5,1 | 0,2,5,1,5,1,5,1 | 0,2,5,1,5,1,5,1 | 0,2,5,1,5,1,5,1 | 0,2,5,1,5,1,5,1 | 0,2,5,1,5,1,5,1 | 0,2,5,1,5,1,5,1 | 0,2,5,1,5,1,5,1 | 0,2,5,1,5,1,5,1 | 0,2,5,1,5,1,5,1 | 0,2,5,1,5,1,5,1 | 0,2,5,1,5,1,5,1 | 0,2,5,1,5,1,5,1 | 0,2,5,1,5,1,5,1 | 0,2,5,1,5,1,5,1 | 0,2,5,1,5,1,5,1 | 0,2,5,1,5,1,5,1 | 0,2,5,1,5,1,5,1 | 0,2,5,1,5,1,5,1 | 0,2,5,1,5,1,5,1 | 0,2,5,1,5,1,5,1 | 0,2,5,1,5,1,5,1 | 0,2,5,1,5,1,5,1 | 0,2,5,1,5,1,5,1 | 0,2,5,1,5,1,5,1 | 0,2,5,1,5,1,5,1 | 0,2,5,1,5,1,5,1 | 0,2,5,1,5,1,5,1 | 0,2,5,1,5,1,5,1 | 0,2,5,1,5,1,5,1 | 0,2,5,1,5,1,5,1 | 0,2,5,1,5,1,5,1 | 0,2,5,1,5,1,5,1 | 0,2,5,1,5,1,5,1 | 0,2,5,1,5,1,5,1 | 0,2,5,1,5,1,5,1 | 0,2,5,1,5,1,5,1 | 0,2,5,1,5,1,5,1 | 0,2,5,1,5,1,5,1 | 0,2,5,1,5,1,5,1 | 0,2,5,1,5,1,5,1 | 0,2,5,1,5,1,5,1 | 0,2,5,1,5,1,5,1 | 0,2,5,1,5,1,5,1 | 0,2,5,1,5,1,5,1 | 0,2,5,1,5,1,5,1 | 0,2,5,1,5,1,5,1 | 0,2,5,1,5,1,5,1 | 0,2,5,1,5,1,5,1 | 0,2,5,1,5,1,5,1 | 0,2,5,1,5,1,5,1 | 0,2,5,1,5,1,5,1 | 0,2,5,1,5,1,5,1 | 0,2,5,1,5,1,5,1 | 0,2,5,1,5,1,5,1 | 0,2,5,1,5,1,5,1 | 0,2,5,1,5,1,5,1 | 0,2,5,1,5,1,5,1 | 0,2,5,1,5,1,5,1 | 0,2,5,1,5,1,5,1 | 0,2,5,1,5,1,5,1 | 0,2,5,1,5,1,5,1 | 0,2,5,1,5,1,5,1 | 0,2,5,1,5,1,5,1 | 0,2,5,1,5,1,5,1 | 0,2,5,1,5,1,5,1 | 0,2,5,1,5,1,5,1 | 0,2,5,1,5,1,5,1 | 0,2,5,1,5,1,5,1 | 0,2,5,1,5,1,5,1 | 0,2,5,1,5,1,5,1 | 0,2,5,1,5,1,5,1 | 0,2,5,1,5,1,5,1 | 0,2,5,1,5,1,5,1 | 0,2,5,1,5,1,5,1 | 0,2,5,1,5,1,5,1 | 0,2,5,1,5,1,5,1 | 0,2,5,1,5,1,5,1 | 0,2,5,1,5,1,5,1 | 0,2,5,1,5,1,5,1 | 0,2,5,1,5,1,5,1 | 0,2,5,1,5,1,5,1 | 0,2,5,1,5,1,5,1 | 0,2,5,1,5,1,5,1 | 0,2,5,1,5,1,5,1 | 0,2,5,1,5,1,5,1 | 0,2,5,1,5,1,5,1 | 0,2,5,1,5,1,5,1 | 0,2,5,1,5,1,5,1 | 0,2,5,1,5,1,5,1 | 0,2,5,1,5,1,5,1 | 0,2,5,1,5,1,5,1 | 0,2,5,1,5,1,5,1 | 0,2,5,1,5,1,5,1 | 0,2,5,1,5,1,5,1 | 0,2,5,1,5,1,5,1 | 0,2,5,1,5,1,5,1 | 0,2,5,1,5,1,5,1 | 0,2,5,1,5,1,5,1 | 0,2,5,1,5,1,5,1 | 0,2,5,1,5,1,5,1 | 0,2,5,1,5,1,5,1 | 0,2,5,1,5,1,5,1 | 0,2,5,1,5,1,5,1 | 0,2,5,1,5,1,5,1 | 0,2,5,1,5,1,5,1 | 0,2,5,1,5,1,5,1 | 0,2,5,1,5,1,5,1 | 0,2,5,1,5,1,5,1 | 0,2,5,1,5,1,5,1 | 0,2,5,1,5,1,5,1 | 0,2,5,1,5,1,5,1 | 0,2,5,1,5,1,5,1 | 0,2,5,1,5,1,5,1 | 0,2,5,1,5,1,5,1 | 0,2,5,1,5,1,5,1 | 0,2,5,1,5,1,5,1 | 0,2,5,1,5,1,5,1 | 0,2,5,1,5,1,5,1 | 0,2,5,1,5,1,5,1 | 0,2,5,1,5,1,5,1 | 0,2,5,1,5,1,5,1 | 0,2,5,1,5,1,5,1 | 0,2,5,1,5,1,5,1 | 0,2,5,1,5,1,5,1 | 0,2,5,1,5,1,5,1 | 0,2,5,1,5,1,5,1 | 0,2,5,1,5,1,5,1 | 0,2,5,1,5,1,5,1 | 0,2,5,1,5,1,5,1 | 0,2,5,1,5,1,5,1 | 0,2,5,1,5,1,5,1 | 0,2,5,1,5,1,5,1 | 0,2,5,1,5,1,5,1 | 0,2,5,1,5,1,5,1 | 0,2,5,1,5,1,5,1 | 0,2,5,1,5,1,5,1 | 0,2,5,1,5,1,5,1 | 0,2,5,1,5,1,5,1 | 0,2,5,1,5,1,5,1 |];

